\* Battery_Optimization *\
Maximize
OBJ: - 638 charge_0 - 638 charge_1 - 638 charge_10 - 638 charge_11
 - 638 charge_12 - 638 charge_13 - 638 charge_14 - 638 charge_15
 - 638 charge_16 - 638 charge_17 - 638 charge_18 - 638 charge_19
 - 638 charge_2 - 638 charge_20 - 638 charge_21 - 638 charge_22
 - 638 charge_23 - 638 charge_24 - 638 charge_25 - 638 charge_26
 - 638 charge_27 - 638 charge_28 - 638 charge_29 - 638 charge_3
 - 638 charge_30 - 638 charge_31 - 638 charge_32 - 638 charge_33
 - 638 charge_34 - 638 charge_35 - 638 charge_36 - 638 charge_37
 - 638 charge_38 - 638 charge_39 - 638 charge_4 - 638 charge_40
 - 638 charge_41 - 638 charge_42 - 638 charge_43 - 638 charge_44
 - 638 charge_45 - 638 charge_46 - 638 charge_47 - 638 charge_5 - 638 charge_6
 - 638 charge_7 - 638 charge_8 - 638 charge_9 + 2321.78686093 d_da_bat_0
 + 2584.41322397 d_da_bat_1 + 2670.47258119 d_da_bat_10
 + 2556.86002049 d_da_bat_11 + 2026.53103453 d_da_bat_12
 + 2538.48788347 d_da_bat_13 + 1752.78624842 d_da_bat_14
 + 2013.30166909 d_da_bat_15 + 2264.23374373 d_da_bat_16 + 2762 d_da_bat_17
 + 2762 d_da_bat_18 + 2762 d_da_bat_19 + 2451.40039328 d_da_bat_2
 + 2762 d_da_bat_20 + 2330.28972772 d_da_bat_21 + 2762 d_da_bat_22
 + 2762 d_da_bat_23 + 2762 d_da_bat_24 + 2708.52912309 d_da_bat_25
 + 2762 d_da_bat_26 + 2284.66004721 d_da_bat_27 + 2679.59205295 d_da_bat_28
 + 2762 d_da_bat_29 + 2137.20061291 d_da_bat_3 + 2420.48512574 d_da_bat_30
 + 2055.38290746 d_da_bat_31 + 2419.30794494 d_da_bat_32
 + 2295.18507046 d_da_bat_33 + 1298.24760917 d_da_bat_34
 + 1631.5165703 d_da_bat_35 + 1287.8103703 d_da_bat_36
 + 2069.30903948 d_da_bat_37 + 1800.74421331 d_da_bat_38
 + 2257.81641799 d_da_bat_39 + 1602.89098111 d_da_bat_4
 + 2025.48042404 d_da_bat_40 + 2412.78221849 d_da_bat_41 + 2762 d_da_bat_42
 + 2290.76175534 d_da_bat_43 + 2595.26161985 d_da_bat_44 + 2762 d_da_bat_45
 + 2281.29313928 d_da_bat_46 + 2530.52873744 d_da_bat_47
 + 1669.70008549 d_da_bat_5 + 1628.8090684 d_da_bat_6
 + 1442.61993116 d_da_bat_7 + 1834.30934913 d_da_bat_8
 + 2200.49785867 d_da_bat_9 + 2959.78686093 d_da_prod_0
 + 3222.41322397 d_da_prod_1 + 3308.47258119 d_da_prod_10
 + 3194.86002049 d_da_prod_11 + 2664.53103453 d_da_prod_12
 + 3176.48788347 d_da_prod_13 + 2390.78624842 d_da_prod_14
 + 2651.30166909 d_da_prod_15 + 2902.23374373 d_da_prod_16 + 3400 d_da_prod_17
 + 3400 d_da_prod_18 + 3400 d_da_prod_19 + 3089.40039328 d_da_prod_2
 + 3400 d_da_prod_20 + 2968.28972772 d_da_prod_21 + 3400 d_da_prod_22
 + 3400 d_da_prod_23 + 3400 d_da_prod_24 + 3346.52912309 d_da_prod_25
 + 3400 d_da_prod_26 + 2922.66004721 d_da_prod_27 + 3317.59205295 d_da_prod_28
 + 3400 d_da_prod_29 + 2775.20061291 d_da_prod_3 + 3058.48512574 d_da_prod_30
 + 2693.38290746 d_da_prod_31 + 3057.30794494 d_da_prod_32
 + 2933.18507046 d_da_prod_33 + 1936.24760917 d_da_prod_34
 + 2269.5165703 d_da_prod_35 + 1925.8103703 d_da_prod_36
 + 2707.30903948 d_da_prod_37 + 2438.74421331 d_da_prod_38
 + 2895.81641799 d_da_prod_39 + 2240.89098111 d_da_prod_4
 + 2663.48042404 d_da_prod_40 + 3050.78221849 d_da_prod_41 + 3400 d_da_prod_42
 + 2928.76175534 d_da_prod_43 + 3233.26161985 d_da_prod_44 + 3400 d_da_prod_45
 + 2919.29313928 d_da_prod_46 + 3168.52873744 d_da_prod_47
 + 2307.70008549 d_da_prod_5 + 2266.8090684 d_da_prod_6
 + 2080.61993116 d_da_prod_7 + 2472.30934913 d_da_prod_8
 + 2838.49785867 d_da_prod_9 + 2192.72949921 d_id_bat_0 + 2362 d_id_bat_1
 + 2362 d_id_bat_10 + 2362 d_id_bat_11 + 2116.51106369 d_id_bat_12
 + 2362 d_id_bat_13 + 1811.0416445 d_id_bat_14 + 1889.33826039 d_id_bat_15
 + 2269.97793589 d_id_bat_16 + 2362 d_id_bat_17 + 2362 d_id_bat_18
 + 2362 d_id_bat_19 + 2362 d_id_bat_2 + 2362 d_id_bat_20 + 2362 d_id_bat_21
 + 2362 d_id_bat_22 + 2362 d_id_bat_23 + 2362 d_id_bat_24 + 2362 d_id_bat_25
 + 2362 d_id_bat_26 + 2338.63525897 d_id_bat_27 + 2362 d_id_bat_28
 + 2362 d_id_bat_29 + 2289.81540893 d_id_bat_3 + 2362 d_id_bat_30
 + 2053.9924197 d_id_bat_31 + 2362 d_id_bat_32 + 2362 d_id_bat_33
 + 1298.36906995 d_id_bat_34 + 1557.84631626 d_id_bat_35
 + 1261.56595062 d_id_bat_36 + 2019.47896895 d_id_bat_37
 + 1624.7734501 d_id_bat_38 + 2179.40309129 d_id_bat_39
 + 1761.78905566 d_id_bat_4 + 2262.03365772 d_id_bat_40 + 2362 d_id_bat_41
 + 2362 d_id_bat_42 + 2302.66209308 d_id_bat_43 + 2362 d_id_bat_44
 + 2362 d_id_bat_45 + 2313.26590669 d_id_bat_46 + 2362 d_id_bat_47
 + 1718.35006691 d_id_bat_5 + 1690.07588682 d_id_bat_6
 + 1376.9577241 d_id_bat_7 + 1841.23040302 d_id_bat_8
 + 2146.98593438 d_id_bat_9 + 2830.72949921 d_id_prod_0 + 3000 d_id_prod_1
 + 3000 d_id_prod_10 + 3000 d_id_prod_11 + 2754.51106369 d_id_prod_12
 + 3000 d_id_prod_13 + 2449.0416445 d_id_prod_14 + 2527.33826039 d_id_prod_15
 + 2907.97793589 d_id_prod_16 + 3000 d_id_prod_17 + 3000 d_id_prod_18
 + 3000 d_id_prod_19 + 3000 d_id_prod_2 + 3000 d_id_prod_20
 + 3000 d_id_prod_21 + 3000 d_id_prod_22 + 3000 d_id_prod_23
 + 3000 d_id_prod_24 + 3000 d_id_prod_25 + 3000 d_id_prod_26
 + 2976.63525897 d_id_prod_27 + 3000 d_id_prod_28 + 3000 d_id_prod_29
 + 2927.81540893 d_id_prod_3 + 3000 d_id_prod_30 + 2691.9924197 d_id_prod_31
 + 3000 d_id_prod_32 + 3000 d_id_prod_33 + 1936.36906995 d_id_prod_34
 + 2195.84631626 d_id_prod_35 + 1899.56595062 d_id_prod_36
 + 2657.47896895 d_id_prod_37 + 2262.7734501 d_id_prod_38
 + 2817.40309129 d_id_prod_39 + 2399.78905566 d_id_prod_4
 + 2900.03365772 d_id_prod_40 + 3000 d_id_prod_41 + 3000 d_id_prod_42
 + 2940.66209308 d_id_prod_43 + 3000 d_id_prod_44 + 3000 d_id_prod_45
 + 2951.26590669 d_id_prod_46 + 3000 d_id_prod_47 + 2356.35006691 d_id_prod_5
 + 2328.07588682 d_id_prod_6 + 2014.9577241 d_id_prod_7
 + 2479.23040302 d_id_prod_8 + 2784.98593438 d_id_prod_9
 - 3323.39348892 x_ceza_0 - 3464.28539643 x_ceza_1 - 3407.72675863 x_ceza_10
 - 3290.70582111 x_ceza_11 - 3243.05678722 x_ceza_12 - 3502 x_ceza_13
 - 3220.64904148 x_ceza_14 - 2730.84071916 x_ceza_15 - 3408.47441694 x_ceza_16
 - 3502 x_ceza_17 - 3502 x_ceza_18 - 3502 x_ceza_19 - 3224.36464793 x_ceza_2
 - 3502 x_ceza_20 - 3354.07630128 x_ceza_21 - 3502 x_ceza_22 - 3502 x_ceza_23
 - 3502 x_ceza_24 - 3456.16813226 x_ceza_25 - 3502 x_ceza_26
 - 3010.33984862 x_ceza_27 - 3417.11981454 x_ceza_28 - 3502 x_ceza_29
 - 2858.4566313 x_ceza_3 - 3502 x_ceza_30 - 2774.18439468 x_ceza_31
 - 3377.87718188 x_ceza_32 - 3403.61281925 x_ceza_33 - 2189.47139912 x_ceza_34
 - 2993.07144998 x_ceza_35 - 2892.37004997 x_ceza_36 - 3406.31805218 x_ceza_37
 - 3181.8273741 x_ceza_38 - 3502 x_ceza_39 - 2842.67544381 x_ceza_4
 - 3425.73242458 x_ceza_40 - 3346.18119825 x_ceza_41 - 3502 x_ceza_42
 - 3340.20820267 x_ceza_43 - 3444.75315615 x_ceza_44 - 3502 x_ceza_45
 - 3337.24923961 x_ceza_46 - 3428.02192224 x_ceza_47 - 2790.99789602 x_ceza_5
 - 2909.01994555 x_ceza_6 - 2143.03852909 x_ceza_7 - 2546.4786296 x_ceza_8
 - 2923.65279443 x_ceza_9 - 2830.72949921 x_id_0 - 3073.83380172 x_id_1
 - 3131.95554889 x_id_10 - 3121.92571137 x_id_11 - 2754.51106369 x_id_12
 - 3271.40948996 x_id_13 - 2449.0416445 x_id_14 - 2527.33826039 x_id_15
 - 2907.97793589 x_id_16 - 3400 x_id_17 - 3400 x_id_18 - 3400 x_id_19
 - 3057.39762757 x_id_2 - 3400 x_id_20 - 3023.11450875 x_id_21 - 3400 x_id_22
 - 3400 x_id_23 - 3400 x_id_24 - 3400 x_id_25 - 3400 x_id_26
 - 2976.63525897 x_id_27 - 3309.34964998 x_id_28 - 3400 x_id_29
 - 2927.81540893 x_id_3 - 3400 x_id_30 - 2691.9924197 x_id_31
 - 3221.72747153 x_id_32 - 3057.21197165 x_id_33 - 1936.36906995 x_id_34
 - 2195.84631626 x_id_35 - 1899.56595062 x_id_36 - 2657.47896895 x_id_37
 - 2262.7734501 x_id_38 - 2817.40309129 x_id_39 - 2399.78905566 x_id_4
 - 2900.03365772 x_id_40 - 3123.23994563 x_id_41 - 3400 x_id_42
 - 2940.66209308 x_id_43 - 3230.91729036 x_id_44 - 3400 x_id_45
 - 2951.26590669 x_id_46 - 3208.47917434 x_id_47 - 2356.35006691 x_id_5
 - 2328.07588682 x_id_6 - 2014.9577241 x_id_7 - 2479.23040302 x_id_8
 - 2784.98593438 x_id_9
Subject To
_C1: - d_da_bat_0 - d_da_prod_0 + q_committed_0 = 0
_C10: d_da_prod_1 >= 6.83197733171
_C100: d_da_bat_14 + d_da_prod_14 + d_id_bat_14 + d_id_prod_14 <= 61.8
_C101: d_da_prod_14 >= 7.91415077737
_C102: charge_14 + d_da_prod_14 + d_id_prod_14 <= 31.6566031095
_C103: - charge_14 + d_da_bat_14 + 0 d_id_bat_14 - d_id_prod_14
 - q_committed_14 + x_ceza_14 + x_id_14 = -31.6566031095
_C104: d_da_bat_14 + d_id_bat_14 + 61.8 is_charging_14 <= 61.8
_C105: charge_14 - 61.8 is_charging_14 <= 0
_C106: - d_da_bat_15 - d_da_prod_15 + q_committed_15 = 0
_C107: d_da_bat_15 + d_da_prod_15 + d_id_bat_15 + d_id_prod_15 <= 61.8
_C108: d_da_prod_15 >= 8.35140155767
_C109: charge_15 + d_da_prod_15 + d_id_prod_15 <= 33.4056062307
_C11: charge_1 + d_da_prod_1 + d_id_prod_1 <= 27.3279093268
_C110: - charge_15 + d_da_bat_15 + 0 d_id_bat_15 - d_id_prod_15
 - q_committed_15 + x_ceza_15 + x_id_15 = -33.4056062307
_C111: d_da_bat_15 + d_id_bat_15 + 61.8 is_charging_15 <= 61.8
_C112: charge_15 - 61.8 is_charging_15 <= 0
_C113: - d_da_bat_16 - d_da_prod_16 + q_committed_16 = 0
_C114: d_da_bat_16 + d_da_prod_16 + d_id_bat_16 + d_id_prod_16 <= 61.8
_C115: d_da_prod_16 >= 9.19811212722
_C116: charge_16 + d_da_prod_16 + d_id_prod_16 <= 36.7924485089
_C117: - charge_16 + d_da_bat_16 + 0 d_id_bat_16 - d_id_prod_16
 - q_committed_16 + x_ceza_16 + x_id_16 = -36.7924485089
_C118: d_da_bat_16 + d_id_bat_16 + 61.8 is_charging_16 <= 61.8
_C119: charge_16 - 61.8 is_charging_16 <= 0
_C12: - charge_1 + d_da_bat_1 + 0 d_id_bat_1 - d_id_prod_1 - q_committed_1
 + x_ceza_1 + x_id_1 = -27.3279093268
_C120: - d_da_bat_17 - d_da_prod_17 + q_committed_17 = 0
_C121: d_da_bat_17 + d_da_prod_17 + d_id_bat_17 + d_id_prod_17 <= 61.8
_C122: d_da_prod_17 >= 14.0842930411
_C123: charge_17 + d_da_prod_17 + d_id_prod_17 <= 56.3371721645
_C124: - charge_17 + d_da_bat_17 + 0 d_id_bat_17 - d_id_prod_17
 - q_committed_17 + x_ceza_17 + x_id_17 = -56.3371721645
_C125: d_da_bat_17 + d_id_bat_17 + 61.8 is_charging_17 <= 61.8
_C126: charge_17 - 61.8 is_charging_17 <= 0
_C127: - d_da_bat_18 - d_da_prod_18 + q_committed_18 = 0
_C128: d_da_bat_18 + d_da_prod_18 + d_id_bat_18 + d_id_prod_18 <= 61.8
_C129: d_da_prod_18 >= 10.8654703059
_C13: d_da_bat_1 + d_id_bat_1 + 61.8 is_charging_1 <= 61.8
_C130: charge_18 + d_da_prod_18 + d_id_prod_18 <= 43.4618812236
_C131: - charge_18 + d_da_bat_18 + 0 d_id_bat_18 - d_id_prod_18
 - q_committed_18 + x_ceza_18 + x_id_18 = -43.4618812236
_C132: d_da_bat_18 + d_id_bat_18 + 61.8 is_charging_18 <= 61.8
_C133: charge_18 - 61.8 is_charging_18 <= 0
_C134: - d_da_bat_19 - d_da_prod_19 + q_committed_19 = 0
_C135: d_da_bat_19 + d_da_prod_19 + d_id_bat_19 + d_id_prod_19 <= 61.8
_C136: d_da_prod_19 >= 10.8514194723
_C137: charge_19 + d_da_prod_19 + d_id_prod_19 <= 43.4056778894
_C138: - charge_19 + d_da_bat_19 + 0 d_id_bat_19 - d_id_prod_19
 - q_committed_19 + x_ceza_19 + x_id_19 = -43.4056778894
_C139: d_da_bat_19 + d_id_bat_19 + 61.8 is_charging_19 <= 61.8
_C14: charge_1 - 61.8 is_charging_1 <= 0
_C140: charge_19 - 61.8 is_charging_19 <= 0
_C141: - d_da_bat_20 - d_da_prod_20 + q_committed_20 = 0
_C142: d_da_bat_20 + d_da_prod_20 + d_id_bat_20 + d_id_prod_20 <= 61.8
_C143: d_da_prod_20 >= 12.8304632684
_C144: charge_20 + d_da_prod_20 + d_id_prod_20 <= 51.3218530735
_C145: - charge_20 + d_da_bat_20 + 0 d_id_bat_20 - d_id_prod_20
 - q_committed_20 + x_ceza_20 + x_id_20 = -51.3218530735
_C146: d_da_bat_20 + d_id_bat_20 + 61.8 is_charging_20 <= 61.8
_C147: charge_20 - 61.8 is_charging_20 <= 0
_C148: - d_da_bat_21 - d_da_prod_21 + q_committed_21 = 0
_C149: d_da_bat_21 + d_da_prod_21 + d_id_bat_21 + d_id_prod_21 <= 61.8
_C15: - d_da_bat_2 - d_da_prod_2 + q_committed_2 = 0
_C150: d_da_prod_21 >= 11.7696953884
_C151: charge_21 + d_da_prod_21 + d_id_prod_21 <= 47.0787815536
_C152: - charge_21 + d_da_bat_21 + 0 d_id_bat_21 - d_id_prod_21
 - q_committed_21 + x_ceza_21 + x_id_21 = -47.0787815536
_C153: d_da_bat_21 + d_id_bat_21 + 61.8 is_charging_21 <= 61.8
_C154: charge_21 - 61.8 is_charging_21 <= 0
_C155: - d_da_bat_22 - d_da_prod_22 + q_committed_22 = 0
_C156: d_da_bat_22 + d_da_prod_22 + d_id_bat_22 + d_id_prod_22 <= 61.8
_C157: d_da_prod_22 >= 16.6670140058
_C158: charge_22 + d_da_prod_22 + d_id_prod_22 <= 66.668056023
_C159: - charge_22 + d_da_bat_22 + 0 d_id_bat_22 - d_id_prod_22
 - q_committed_22 + x_ceza_22 + x_id_22 = -66.668056023
_C16: d_da_bat_2 + d_da_prod_2 + d_id_bat_2 + d_id_prod_2 <= 61.8
_C160: d_da_bat_22 + d_id_bat_22 + 61.8 is_charging_22 <= 61.8
_C161: charge_22 - 61.8 is_charging_22 <= 0
_C162: - d_da_bat_23 - d_da_prod_23 + q_committed_23 = 0
_C163: d_da_bat_23 + d_da_prod_23 + d_id_bat_23 + d_id_prod_23 <= 61.8
_C164: d_da_prod_23 >= 19.1190700875
_C165: charge_23 + d_da_prod_23 + d_id_prod_23 <= 76.4762803499
_C166: - charge_23 + d_da_bat_23 + 0 d_id_bat_23 - d_id_prod_23
 - q_committed_23 + x_ceza_23 + x_id_23 = -76.4762803499
_C167: d_da_bat_23 + d_id_bat_23 + 61.8 is_charging_23 <= 61.8
_C168: charge_23 - 61.8 is_charging_23 <= 0
_C169: - d_da_bat_24 - d_da_prod_24 + q_committed_24 = 0
_C17: d_da_prod_2 >= 6.85698056402
_C170: d_da_bat_24 + d_da_prod_24 + d_id_bat_24 + d_id_prod_24 <= 61.8
_C171: d_da_prod_24 >= 18.4643314408
_C172: charge_24 + d_da_prod_24 + d_id_prod_24 <= 73.8573257633
_C173: - charge_24 + d_da_bat_24 + 0 d_id_bat_24 - d_id_prod_24
 - q_committed_24 + x_ceza_24 + x_id_24 = -73.8573257633
_C174: d_da_bat_24 + d_id_bat_24 + 61.8 is_charging_24 <= 61.8
_C175: charge_24 - 61.8 is_charging_24 <= 0
_C176: - d_da_bat_25 - d_da_prod_25 + q_committed_25 = 0
_C177: d_da_bat_25 + d_da_prod_25 + d_id_bat_25 + d_id_prod_25 <= 61.8
_C178: d_da_prod_25 >= 15.4134838593
_C179: charge_25 + d_da_prod_25 + d_id_prod_25 <= 61.6539354371
_C18: charge_2 + d_da_prod_2 + d_id_prod_2 <= 27.4279222561
_C180: - charge_25 + d_da_bat_25 + 0 d_id_bat_25 - d_id_prod_25
 - q_committed_25 + x_ceza_25 + x_id_25 = -61.6539354371
_C181: d_da_bat_25 + d_id_bat_25 + 61.8 is_charging_25 <= 61.8
_C182: charge_25 - 61.8 is_charging_25 <= 0
_C183: - d_da_bat_26 - d_da_prod_26 + q_committed_26 = 0
_C184: d_da_bat_26 + d_da_prod_26 + d_id_bat_26 + d_id_prod_26 <= 61.8
_C185: d_da_prod_26 >= 18.5756719054
_C186: charge_26 + d_da_prod_26 + d_id_prod_26 <= 74.3026876217
_C187: - charge_26 + d_da_bat_26 + 0 d_id_bat_26 - d_id_prod_26
 - q_committed_26 + x_ceza_26 + x_id_26 = -74.3026876217
_C188: d_da_bat_26 + d_id_bat_26 + 61.8 is_charging_26 <= 61.8
_C189: charge_26 - 61.8 is_charging_26 <= 0
_C19: - charge_2 + d_da_bat_2 + 0 d_id_bat_2 - d_id_prod_2 - q_committed_2
 + x_ceza_2 + x_id_2 = -27.4279222561
_C190: - d_da_bat_27 - d_da_prod_27 + q_committed_27 = 0
_C191: d_da_bat_27 + d_da_prod_27 + d_id_bat_27 + d_id_prod_27 <= 61.8
_C192: d_da_prod_27 >= 15.9999206815
_C193: charge_27 + d_da_prod_27 + d_id_prod_27 <= 63.9996827259
_C194: - charge_27 + d_da_bat_27 + 0 d_id_bat_27 - d_id_prod_27
 - q_committed_27 + x_ceza_27 + x_id_27 = -63.9996827259
_C195: d_da_bat_27 + d_id_bat_27 + 61.8 is_charging_27 <= 61.8
_C196: charge_27 - 61.8 is_charging_27 <= 0
_C197: - d_da_bat_28 - d_da_prod_28 + q_committed_28 = 0
_C198: d_da_bat_28 + d_da_prod_28 + d_id_bat_28 + d_id_prod_28 <= 61.8
_C199: d_da_prod_28 >= 17.0481152366
_C2: d_da_bat_0 + d_da_prod_0 + d_id_bat_0 + d_id_prod_0 <= 61.8
_C20: d_da_bat_2 + d_id_bat_2 + 61.8 is_charging_2 <= 61.8
_C200: charge_28 + d_da_prod_28 + d_id_prod_28 <= 68.1924609464
_C201: - charge_28 + d_da_bat_28 + 0 d_id_bat_28 - d_id_prod_28
 - q_committed_28 + x_ceza_28 + x_id_28 = -68.1924609464
_C202: d_da_bat_28 + d_id_bat_28 + 61.8 is_charging_28 <= 61.8
_C203: charge_28 - 61.8 is_charging_28 <= 0
_C204: - d_da_bat_29 - d_da_prod_29 + q_committed_29 = 0
_C205: d_da_bat_29 + d_da_prod_29 + d_id_bat_29 + d_id_prod_29 <= 61.8
_C206: d_da_prod_29 >= 20.4308313021
_C207: charge_29 + d_da_prod_29 + d_id_prod_29 <= 81.7233252083
_C208: - charge_29 + d_da_bat_29 + 0 d_id_bat_29 - d_id_prod_29
 - q_committed_29 + x_ceza_29 + x_id_29 = -81.7233252083
_C209: d_da_bat_29 + d_id_bat_29 + 61.8 is_charging_29 <= 61.8
_C21: charge_2 - 61.8 is_charging_2 <= 0
_C210: charge_29 - 61.8 is_charging_29 <= 0
_C211: - d_da_bat_30 - d_da_prod_30 + q_committed_30 = 0
_C212: d_da_bat_30 + d_da_prod_30 + d_id_bat_30 + d_id_prod_30 <= 61.8
_C213: d_da_prod_30 >= 17.9873416664
_C214: charge_30 + d_da_prod_30 + d_id_prod_30 <= 71.9493666657
_C215: - charge_30 + d_da_bat_30 + 0 d_id_bat_30 - d_id_prod_30
 - q_committed_30 + x_ceza_30 + x_id_30 = -71.9493666657
_C216: d_da_bat_30 + d_id_bat_30 + 61.8 is_charging_30 <= 61.8
_C217: charge_30 - 61.8 is_charging_30 <= 0
_C218: - d_da_bat_31 - d_da_prod_31 + q_committed_31 = 0
_C219: d_da_bat_31 + d_da_prod_31 + d_id_bat_31 + d_id_prod_31 <= 61.8
_C22: - d_da_bat_3 - d_da_prod_3 + q_committed_3 = 0
_C220: d_da_prod_31 >= 18.113911379
_C221: charge_31 + d_da_prod_31 + d_id_prod_31 <= 72.455645516
_C222: - charge_31 + d_da_bat_31 + 0 d_id_bat_31 - d_id_prod_31
 - q_committed_31 + x_ceza_31 + x_id_31 = -72.455645516
_C223: d_da_bat_31 + d_id_bat_31 + 61.8 is_charging_31 <= 61.8
_C224: charge_31 - 61.8 is_charging_31 <= 0
_C225: - d_da_bat_32 - d_da_prod_32 + q_committed_32 = 0
_C226: d_da_bat_32 + d_da_prod_32 + d_id_bat_32 + d_id_prod_32 <= 61.8
_C227: d_da_prod_32 >= 16.9170228062
_C228: charge_32 + d_da_prod_32 + d_id_prod_32 <= 67.6680912246
_C229: - charge_32 + d_da_bat_32 + 0 d_id_bat_32 - d_id_prod_32
 - q_committed_32 + x_ceza_32 + x_id_32 = -67.6680912246
_C23: d_da_bat_3 + d_da_prod_3 + d_id_bat_3 + d_id_prod_3 <= 61.8
_C230: d_da_bat_32 + d_id_bat_32 + 61.8 is_charging_32 <= 61.8
_C231: charge_32 - 61.8 is_charging_32 <= 0
_C232: - d_da_bat_33 - d_da_prod_33 + q_committed_33 = 0
_C233: d_da_bat_33 + d_da_prod_33 + d_id_bat_33 + d_id_prod_33 <= 61.8
_C234: d_da_prod_33 >= 11.9369170027
_C235: charge_33 + d_da_prod_33 + d_id_prod_33 <= 47.7476680109
_C236: - charge_33 + d_da_bat_33 + 0 d_id_bat_33 - d_id_prod_33
 - q_committed_33 + x_ceza_33 + x_id_33 = -47.7476680109
_C237: d_da_bat_33 + d_id_bat_33 + 61.8 is_charging_33 <= 61.8
_C238: charge_33 - 61.8 is_charging_33 <= 0
_C239: - d_da_bat_34 - d_da_prod_34 + q_committed_34 = 0
_C24: d_da_prod_3 >= 11.1277087967
_C240: d_da_bat_34 + d_da_prod_34 + d_id_bat_34 + d_id_prod_34 <= 61.8
_C241: d_da_prod_34 >= 11.3509854823
_C242: charge_34 + d_da_prod_34 + d_id_prod_34 <= 45.4039419293
_C243: - charge_34 + d_da_bat_34 + 0 d_id_bat_34 - d_id_prod_34
 - q_committed_34 + x_ceza_34 + x_id_34 = -45.4039419293
_C244: d_da_bat_34 + d_id_bat_34 + 61.8 is_charging_34 <= 61.8
_C245: charge_34 - 61.8 is_charging_34 <= 0
_C246: - d_da_bat_35 - d_da_prod_35 + q_committed_35 = 0
_C247: d_da_bat_35 + d_da_prod_35 + d_id_bat_35 + d_id_prod_35 <= 61.8
_C248: d_da_prod_35 >= 12.8235732237
_C249: charge_35 + d_da_prod_35 + d_id_prod_35 <= 51.2942928946
_C25: charge_3 + d_da_prod_3 + d_id_prod_3 <= 44.5108351868
_C250: - charge_35 + d_da_bat_35 + 0 d_id_bat_35 - d_id_prod_35
 - q_committed_35 + x_ceza_35 + x_id_35 = -51.2942928946
_C251: d_da_bat_35 + d_id_bat_35 + 61.8 is_charging_35 <= 61.8
_C252: charge_35 - 61.8 is_charging_35 <= 0
_C253: - d_da_bat_36 - d_da_prod_36 + q_committed_36 = 0
_C254: d_da_bat_36 + d_da_prod_36 + d_id_bat_36 + d_id_prod_36 <= 61.8
_C255: d_da_prod_36 >= 11.0945526453
_C256: charge_36 + d_da_prod_36 + d_id_prod_36 <= 44.3782105812
_C257: - charge_36 + d_da_bat_36 + 0 d_id_bat_36 - d_id_prod_36
 - q_committed_36 + x_ceza_36 + x_id_36 = -44.3782105812
_C258: d_da_bat_36 + d_id_bat_36 + 61.8 is_charging_36 <= 61.8
_C259: charge_36 - 61.8 is_charging_36 <= 0
_C26: - charge_3 + d_da_bat_3 + 0 d_id_bat_3 - d_id_prod_3 - q_committed_3
 + x_ceza_3 + x_id_3 = -44.5108351868
_C260: - d_da_bat_37 - d_da_prod_37 + q_committed_37 = 0
_C261: d_da_bat_37 + d_da_prod_37 + d_id_bat_37 + d_id_prod_37 <= 61.8
_C262: d_da_prod_37 >= 13.058309542
_C263: charge_37 + d_da_prod_37 + d_id_prod_37 <= 52.2332381679
_C264: - charge_37 + d_da_bat_37 + 0 d_id_bat_37 - d_id_prod_37
 - q_committed_37 + x_ceza_37 + x_id_37 = -52.2332381679
_C265: d_da_bat_37 + d_id_bat_37 + 61.8 is_charging_37 <= 61.8
_C266: charge_37 - 61.8 is_charging_37 <= 0
_C267: - d_da_bat_38 - d_da_prod_38 + q_committed_38 = 0
_C268: d_da_bat_38 + d_da_prod_38 + d_id_bat_38 + d_id_prod_38 <= 61.8
_C269: d_da_prod_38 >= 11.3241727193
_C27: d_da_bat_3 + d_id_bat_3 + 61.8 is_charging_3 <= 61.8
_C270: charge_38 + d_da_prod_38 + d_id_prod_38 <= 45.2966908772
_C271: - charge_38 + d_da_bat_38 + 0 d_id_bat_38 - d_id_prod_38
 - q_committed_38 + x_ceza_38 + x_id_38 = -45.2966908772
_C272: d_da_bat_38 + d_id_bat_38 + 61.8 is_charging_38 <= 61.8
_C273: charge_38 - 61.8 is_charging_38 <= 0
_C274: - d_da_bat_39 - d_da_prod_39 + q_committed_39 = 0
_C275: d_da_bat_39 + d_da_prod_39 + d_id_bat_39 + d_id_prod_39 <= 61.8
_C276: d_da_prod_39 >= 15.763532311
_C277: charge_39 + d_da_prod_39 + d_id_prod_39 <= 63.0541292442
_C278: - charge_39 + d_da_bat_39 + 0 d_id_bat_39 - d_id_prod_39
 - q_committed_39 + x_ceza_39 + x_id_39 = -63.0541292442
_C279: d_da_bat_39 + d_id_bat_39 + 61.8 is_charging_39 <= 61.8
_C28: charge_3 - 61.8 is_charging_3 <= 0
_C280: charge_39 - 61.8 is_charging_39 <= 0
_C281: - d_da_bat_40 - d_da_prod_40 + q_committed_40 = 0
_C282: d_da_bat_40 + d_da_prod_40 + d_id_bat_40 + d_id_prod_40 <= 61.8
_C283: d_da_prod_40 >= 13.9986011227
_C284: charge_40 + d_da_prod_40 + d_id_prod_40 <= 55.9944044906
_C285: - charge_40 + d_da_bat_40 + 0 d_id_bat_40 - d_id_prod_40
 - q_committed_40 + x_ceza_40 + x_id_40 = -55.9944044906
_C286: d_da_bat_40 + d_id_bat_40 + 61.8 is_charging_40 <= 61.8
_C287: charge_40 - 61.8 is_charging_40 <= 0
_C288: - d_da_bat_41 - d_da_prod_41 + q_committed_41 = 0
_C289: d_da_bat_41 + d_da_prod_41 + d_id_bat_41 + d_id_prod_41 <= 61.8
_C29: - d_da_bat_4 - d_da_prod_4 + q_committed_4 = 0
_C290: d_da_prod_41 >= 13.4798332317
_C291: charge_41 + d_da_prod_41 + d_id_prod_41 <= 53.9193329269
_C292: - charge_41 + d_da_bat_41 + 0 d_id_bat_41 - d_id_prod_41
 - q_committed_41 + x_ceza_41 + x_id_41 = -53.9193329269
_C293: d_da_bat_41 + d_id_bat_41 + 61.8 is_charging_41 <= 61.8
_C294: charge_41 - 61.8 is_charging_41 <= 0
_C295: - d_da_bat_42 - d_da_prod_42 + q_committed_42 = 0
_C296: d_da_bat_42 + d_da_prod_42 + d_id_bat_42 + d_id_prod_42 <= 61.8
_C297: d_da_prod_42 >= 15.7263919243
_C298: charge_42 + d_da_prod_42 + d_id_prod_42 <= 62.9055676971
_C299: - charge_42 + d_da_bat_42 + 0 d_id_bat_42 - d_id_prod_42
 - q_committed_42 + x_ceza_42 + x_id_42 = -62.9055676971
_C3: d_da_prod_0 >= 4.95058178693
_C30: d_da_bat_4 + d_da_prod_4 + d_id_bat_4 + d_id_prod_4 <= 61.8
_C300: d_da_bat_42 + d_id_bat_42 + 61.8 is_charging_42 <= 61.8
_C301: charge_42 - 61.8 is_charging_42 <= 0
_C302: - d_da_bat_43 - d_da_prod_43 + q_committed_43 = 0
_C303: d_da_bat_43 + d_da_prod_43 + d_id_bat_43 + d_id_prod_43 <= 61.8
_C304: d_da_prod_43 >= 12.5169732767
_C305: charge_43 + d_da_prod_43 + d_id_prod_43 <= 50.0678931067
_C306: - charge_43 + d_da_bat_43 + 0 d_id_bat_43 - d_id_prod_43
 - q_committed_43 + x_ceza_43 + x_id_43 = -50.0678931067
_C307: d_da_bat_43 + d_id_bat_43 + 61.8 is_charging_43 <= 61.8
_C308: charge_43 - 61.8 is_charging_43 <= 0
_C309: - d_da_bat_44 - d_da_prod_44 + q_committed_44 = 0
_C31: d_da_prod_4 >= 9.90458957746
_C310: d_da_bat_44 + d_da_prod_44 + d_id_bat_44 + d_id_prod_44 <= 61.8
_C311: d_da_prod_44 >= 12.6210981167
_C312: charge_44 + d_da_prod_44 + d_id_prod_44 <= 50.4843924666
_C313: - charge_44 + d_da_bat_44 + 0 d_id_bat_44 - d_id_prod_44
 - q_committed_44 + x_ceza_44 + x_id_44 = -50.4843924666
_C314: d_da_bat_44 + d_id_bat_44 + 61.8 is_charging_44 <= 61.8
_C315: charge_44 - 61.8 is_charging_44 <= 0
_C316: - d_da_bat_45 - d_da_prod_45 + q_committed_45 = 0
_C317: d_da_bat_45 + d_da_prod_45 + d_id_bat_45 + d_id_prod_45 <= 61.8
_C318: d_da_prod_45 >= 13.6096290209
_C319: charge_45 + d_da_prod_45 + d_id_prod_45 <= 54.4385160837
_C32: charge_4 + d_da_prod_4 + d_id_prod_4 <= 39.6183583098
_C320: - charge_45 + d_da_bat_45 + 0 d_id_bat_45 - d_id_prod_45
 - q_committed_45 + x_ceza_45 + x_id_45 = -54.4385160837
_C321: d_da_bat_45 + d_id_bat_45 + 61.8 is_charging_45 <= 61.8
_C322: charge_45 - 61.8 is_charging_45 <= 0
_C323: - d_da_bat_46 - d_da_prod_46 + q_committed_46 = 0
_C324: d_da_bat_46 + d_da_prod_46 + d_id_bat_46 + d_id_prod_46 <= 61.8
_C325: d_da_prod_46 >= 5.41533615967
_C326: charge_46 + d_da_prod_46 + d_id_prod_46 <= 21.6613446387
_C327: - charge_46 + d_da_bat_46 + 0 d_id_bat_46 - d_id_prod_46
 - q_committed_46 + x_ceza_46 + x_id_46 = -21.6613446387
_C328: d_da_bat_46 + d_id_bat_46 + 61.8 is_charging_46 <= 61.8
_C329: charge_46 - 61.8 is_charging_46 <= 0
_C33: - charge_4 + d_da_bat_4 + 0 d_id_bat_4 - d_id_prod_4 - q_committed_4
 + x_ceza_4 + x_id_4 = -39.6183583098
_C330: - d_da_bat_47 - d_da_prod_47 + q_committed_47 = 0
_C331: d_da_bat_47 + d_da_prod_47 + d_id_bat_47 + d_id_prod_47 <= 61.8
_C332: d_da_prod_47 >= 5.63121451882
_C333: charge_47 + d_da_prod_47 + d_id_prod_47 <= 22.5248580753
_C334: - charge_47 + d_da_bat_47 + 0 d_id_bat_47 - d_id_prod_47
 - q_committed_47 + x_ceza_47 + x_id_47 = -22.5248580753
_C335: d_da_bat_47 + d_id_bat_47 + 61.8 is_charging_47 <= 61.8
_C336: charge_47 - 61.8 is_charging_47 <= 0
_C337: soc_0 = 31
_C338: q_committed_0 <= 50.8023271477
_C339: - 0.97 charge_47 + 1.03092783505 d_da_bat_47
 + 1.03092783505 d_id_bat_47 - soc_47 + soc_final = 0
_C34: d_da_bat_4 + d_id_bat_4 + 61.8 is_charging_4 <= 61.8
_C340: soc_final >= 8
_C341: soc_final <= 40.2
_C342: - 0.97 charge_0 + 1.03092783505 d_da_bat_0 + 1.03092783505 d_id_bat_0
 - soc_0 + soc_1 = 0
_C343: q_committed_1 - soc_1 <= 27.3279093268
_C344: - 0.97 charge_1 + 1.03092783505 d_da_bat_1 + 1.03092783505 d_id_bat_1
 - soc_1 + soc_2 = 0
_C345: q_committed_2 - soc_2 <= 27.4279222561
_C346: - 0.97 charge_2 + 1.03092783505 d_da_bat_2 + 1.03092783505 d_id_bat_2
 - soc_2 + soc_3 = 0
_C347: q_committed_3 - soc_3 <= 44.5108351868
_C348: - 0.97 charge_3 + 1.03092783505 d_da_bat_3 + 1.03092783505 d_id_bat_3
 - soc_3 + soc_4 = 0
_C349: q_committed_4 - soc_4 <= 39.6183583098
_C35: charge_4 - 61.8 is_charging_4 <= 0
_C350: - 0.97 charge_4 + 1.03092783505 d_da_bat_4 + 1.03092783505 d_id_bat_4
 - soc_4 + soc_5 = 0
_C351: q_committed_5 - soc_5 <= 34.0528334064
_C352: - 0.97 charge_5 + 1.03092783505 d_da_bat_5 + 1.03092783505 d_id_bat_5
 - soc_5 + soc_6 = 0
_C353: q_committed_6 - soc_6 <= 32.552370228
_C354: - 0.97 charge_6 + 1.03092783505 d_da_bat_6 + 1.03092783505 d_id_bat_6
 - soc_6 + soc_7 = 0
_C355: q_committed_7 - soc_7 <= 26.3193667355
_C356: - 0.97 charge_7 + 1.03092783505 d_da_bat_7 + 1.03092783505 d_id_bat_7
 - soc_7 + soc_8 = 0
_C357: q_committed_8 - soc_8 <= 25.1691033239
_C358: - 0.97 charge_8 + 1.03092783505 d_da_bat_8 + 1.03092783505 d_id_bat_8
 - soc_8 + soc_9 = 0
_C359: q_committed_9 - soc_9 <= 29.5300690646
_C36: - d_da_bat_5 - d_da_prod_5 + q_committed_5 = 0
_C360: - 0.97 charge_9 + 1.03092783505 d_da_bat_9 + 1.03092783505 d_id_bat_9
 + soc_10 - soc_9 = 0
_C361: q_committed_10 - soc_10 <= 34.5455438677
_C362: - 0.97 charge_10 + 1.03092783505 d_da_bat_10
 + 1.03092783505 d_id_bat_10 - soc_10 + soc_11 = 0
_C363: q_committed_11 - soc_11 <= 41.2516454675
_C364: - 0.97 charge_11 + 1.03092783505 d_da_bat_11
 + 1.03092783505 d_id_bat_11 - soc_11 + soc_12 = 0
_C365: q_committed_12 - soc_12 <= 41.4692004015
_C366: - 0.97 charge_12 + 1.03092783505 d_da_bat_12
 + 1.03092783505 d_id_bat_12 - soc_12 + soc_13 = 0
_C367: q_committed_13 - soc_13 <= 43.5507373193
_C368: - 0.97 charge_13 + 1.03092783505 d_da_bat_13
 + 1.03092783505 d_id_bat_13 - soc_13 + soc_14 = 0
_C369: q_committed_14 - soc_14 <= 31.6566031095
_C37: d_da_bat_5 + d_da_prod_5 + d_id_bat_5 + d_id_prod_5 <= 61.8
_C370: - 0.97 charge_14 + 1.03092783505 d_da_bat_14
 + 1.03092783505 d_id_bat_14 - soc_14 + soc_15 = 0
_C371: q_committed_15 - soc_15 <= 33.4056062307
_C372: - 0.97 charge_15 + 1.03092783505 d_da_bat_15
 + 1.03092783505 d_id_bat_15 - soc_15 + soc_16 = 0
_C373: q_committed_16 - soc_16 <= 36.7924485089
_C374: - 0.97 charge_16 + 1.03092783505 d_da_bat_16
 + 1.03092783505 d_id_bat_16 - soc_16 + soc_17 = 0
_C375: q_committed_17 - soc_17 <= 56.3371721645
_C376: - 0.97 charge_17 + 1.03092783505 d_da_bat_17
 + 1.03092783505 d_id_bat_17 - soc_17 + soc_18 = 0
_C377: q_committed_18 - soc_18 <= 43.4618812236
_C378: - 0.97 charge_18 + 1.03092783505 d_da_bat_18
 + 1.03092783505 d_id_bat_18 - soc_18 + soc_19 = 0
_C379: q_committed_19 - soc_19 <= 43.4056778894
_C38: d_da_prod_5 >= 8.5132083516
_C380: - 0.97 charge_19 + 1.03092783505 d_da_bat_19
 + 1.03092783505 d_id_bat_19 - soc_19 + soc_20 = 0
_C381: q_committed_20 - soc_20 <= 51.3218530735
_C382: - 0.97 charge_20 + 1.03092783505 d_da_bat_20
 + 1.03092783505 d_id_bat_20 - soc_20 + soc_21 = 0
_C383: q_committed_21 - soc_21 <= 47.0787815536
_C384: - 0.97 charge_21 + 1.03092783505 d_da_bat_21
 + 1.03092783505 d_id_bat_21 - soc_21 + soc_22 = 0
_C385: q_committed_22 - soc_22 <= 66.668056023
_C386: - 0.97 charge_22 + 1.03092783505 d_da_bat_22
 + 1.03092783505 d_id_bat_22 - soc_22 + soc_23 = 0
_C387: q_committed_23 - soc_23 <= 76.4762803499
_C388: - 0.97 charge_23 + 1.03092783505 d_da_bat_23
 + 1.03092783505 d_id_bat_23 - soc_23 + soc_24 = 0
_C389: q_committed_24 - soc_24 <= 73.8573257633
_C39: charge_5 + d_da_prod_5 + d_id_prod_5 <= 34.0528334064
_C390: - 0.97 charge_24 + 1.03092783505 d_da_bat_24
 + 1.03092783505 d_id_bat_24 - soc_24 + soc_25 = 0
_C391: q_committed_25 - soc_25 <= 61.6539354371
_C392: - 0.97 charge_25 + 1.03092783505 d_da_bat_25
 + 1.03092783505 d_id_bat_25 - soc_25 + soc_26 = 0
_C393: q_committed_26 - soc_26 <= 74.3026876217
_C394: - 0.97 charge_26 + 1.03092783505 d_da_bat_26
 + 1.03092783505 d_id_bat_26 - soc_26 + soc_27 = 0
_C395: q_committed_27 - soc_27 <= 63.9996827259
_C396: - 0.97 charge_27 + 1.03092783505 d_da_bat_27
 + 1.03092783505 d_id_bat_27 - soc_27 + soc_28 = 0
_C397: q_committed_28 - soc_28 <= 68.1924609464
_C398: - 0.97 charge_28 + 1.03092783505 d_da_bat_28
 + 1.03092783505 d_id_bat_28 - soc_28 + soc_29 = 0
_C399: q_committed_29 - soc_29 <= 81.7233252083
_C4: charge_0 + d_da_prod_0 + d_id_prod_0 <= 19.8023271477
_C40: - charge_5 + d_da_bat_5 + 0 d_id_bat_5 - d_id_prod_5 - q_committed_5
 + x_ceza_5 + x_id_5 = -34.0528334064
_C400: - 0.97 charge_29 + 1.03092783505 d_da_bat_29
 + 1.03092783505 d_id_bat_29 - soc_29 + soc_30 = 0
_C401: q_committed_30 - soc_30 <= 71.9493666657
_C402: - 0.97 charge_30 + 1.03092783505 d_da_bat_30
 + 1.03092783505 d_id_bat_30 - soc_30 + soc_31 = 0
_C403: q_committed_31 - soc_31 <= 72.455645516
_C404: - 0.97 charge_31 + 1.03092783505 d_da_bat_31
 + 1.03092783505 d_id_bat_31 - soc_31 + soc_32 = 0
_C405: q_committed_32 - soc_32 <= 67.6680912246
_C406: - 0.97 charge_32 + 1.03092783505 d_da_bat_32
 + 1.03092783505 d_id_bat_32 - soc_32 + soc_33 = 0
_C407: q_committed_33 - soc_33 <= 47.7476680109
_C408: - 0.97 charge_33 + 1.03092783505 d_da_bat_33
 + 1.03092783505 d_id_bat_33 - soc_33 + soc_34 = 0
_C409: q_committed_34 - soc_34 <= 45.4039419293
_C41: d_da_bat_5 + d_id_bat_5 + 61.8 is_charging_5 <= 61.8
_C410: - 0.97 charge_34 + 1.03092783505 d_da_bat_34
 + 1.03092783505 d_id_bat_34 - soc_34 + soc_35 = 0
_C411: q_committed_35 - soc_35 <= 51.2942928946
_C412: - 0.97 charge_35 + 1.03092783505 d_da_bat_35
 + 1.03092783505 d_id_bat_35 - soc_35 + soc_36 = 0
_C413: q_committed_36 - soc_36 <= 44.3782105812
_C414: - 0.97 charge_36 + 1.03092783505 d_da_bat_36
 + 1.03092783505 d_id_bat_36 - soc_36 + soc_37 = 0
_C415: q_committed_37 - soc_37 <= 52.2332381679
_C416: - 0.97 charge_37 + 1.03092783505 d_da_bat_37
 + 1.03092783505 d_id_bat_37 - soc_37 + soc_38 = 0
_C417: q_committed_38 - soc_38 <= 45.2966908772
_C418: - 0.97 charge_38 + 1.03092783505 d_da_bat_38
 + 1.03092783505 d_id_bat_38 - soc_38 + soc_39 = 0
_C419: q_committed_39 - soc_39 <= 63.0541292442
_C42: charge_5 - 61.8 is_charging_5 <= 0
_C420: - 0.97 charge_39 + 1.03092783505 d_da_bat_39
 + 1.03092783505 d_id_bat_39 - soc_39 + soc_40 = 0
_C421: q_committed_40 - soc_40 <= 55.9944044906
_C422: - 0.97 charge_40 + 1.03092783505 d_da_bat_40
 + 1.03092783505 d_id_bat_40 - soc_40 + soc_41 = 0
_C423: q_committed_41 - soc_41 <= 53.9193329269
_C424: - 0.97 charge_41 + 1.03092783505 d_da_bat_41
 + 1.03092783505 d_id_bat_41 - soc_41 + soc_42 = 0
_C425: q_committed_42 - soc_42 <= 62.9055676971
_C426: - 0.97 charge_42 + 1.03092783505 d_da_bat_42
 + 1.03092783505 d_id_bat_42 - soc_42 + soc_43 = 0
_C427: q_committed_43 - soc_43 <= 50.0678931067
_C428: - 0.97 charge_43 + 1.03092783505 d_da_bat_43
 + 1.03092783505 d_id_bat_43 - soc_43 + soc_44 = 0
_C429: q_committed_44 - soc_44 <= 50.4843924666
_C43: - d_da_bat_6 - d_da_prod_6 + q_committed_6 = 0
_C430: - 0.97 charge_44 + 1.03092783505 d_da_bat_44
 + 1.03092783505 d_id_bat_44 - soc_44 + soc_45 = 0
_C431: q_committed_45 - soc_45 <= 54.4385160837
_C432: - 0.97 charge_45 + 1.03092783505 d_da_bat_45
 + 1.03092783505 d_id_bat_45 - soc_45 + soc_46 = 0
_C433: q_committed_46 - soc_46 <= 21.6613446387
_C434: - 0.97 charge_46 + 1.03092783505 d_da_bat_46
 + 1.03092783505 d_id_bat_46 - soc_46 + soc_47 = 0
_C435: q_committed_47 - soc_47 <= 22.5248580753
_C44: d_da_bat_6 + d_da_prod_6 + d_id_bat_6 + d_id_prod_6 <= 61.8
_C45: d_da_prod_6 >= 8.13809255701
_C46: charge_6 + d_da_prod_6 + d_id_prod_6 <= 32.552370228
_C47: - charge_6 + d_da_bat_6 + 0 d_id_bat_6 - d_id_prod_6 - q_committed_6
 + x_ceza_6 + x_id_6 = -32.552370228
_C48: d_da_bat_6 + d_id_bat_6 + 61.8 is_charging_6 <= 61.8
_C49: charge_6 - 61.8 is_charging_6 <= 0
_C5: - charge_0 + d_da_bat_0 + 0 d_id_bat_0 - d_id_prod_0 - q_committed_0
 + x_ceza_0 + x_id_0 = -19.8023271477
_C50: - d_da_bat_7 - d_da_prod_7 + q_committed_7 = 0
_C51: d_da_bat_7 + d_da_prod_7 + d_id_bat_7 + d_id_prod_7 <= 61.8
_C52: d_da_prod_7 >= 6.57984168387
_C53: charge_7 + d_da_prod_7 + d_id_prod_7 <= 26.3193667355
_C54: - charge_7 + d_da_bat_7 + 0 d_id_bat_7 - d_id_prod_7 - q_committed_7
 + x_ceza_7 + x_id_7 = -26.3193667355
_C55: d_da_bat_7 + d_id_bat_7 + 61.8 is_charging_7 <= 61.8
_C56: charge_7 - 61.8 is_charging_7 <= 0
_C57: - d_da_bat_8 - d_da_prod_8 + q_committed_8 = 0
_C58: d_da_bat_8 + d_da_prod_8 + d_id_bat_8 + d_id_prod_8 <= 61.8
_C59: d_da_prod_8 >= 6.29227583097
_C6: d_da_bat_0 + d_id_bat_0 + 61.8 is_charging_0 <= 61.8
_C60: charge_8 + d_da_prod_8 + d_id_prod_8 <= 25.1691033239
_C61: - charge_8 + d_da_bat_8 + 0 d_id_bat_8 - d_id_prod_8 - q_committed_8
 + x_ceza_8 + x_id_8 = -25.1691033239
_C62: d_da_bat_8 + d_id_bat_8 + 61.8 is_charging_8 <= 61.8
_C63: charge_8 - 61.8 is_charging_8 <= 0
_C64: - d_da_bat_9 - d_da_prod_9 + q_committed_9 = 0
_C65: d_da_bat_9 + d_da_prod_9 + d_id_bat_9 + d_id_prod_9 <= 61.8
_C66: d_da_prod_9 >= 7.38251726615
_C67: charge_9 + d_da_prod_9 + d_id_prod_9 <= 29.5300690646
_C68: - charge_9 + d_da_bat_9 + 0 d_id_bat_9 - d_id_prod_9 - q_committed_9
 + x_ceza_9 + x_id_9 = -29.5300690646
_C69: d_da_bat_9 + d_id_bat_9 + 61.8 is_charging_9 <= 61.8
_C7: charge_0 - 61.8 is_charging_0 <= 0
_C70: charge_9 - 61.8 is_charging_9 <= 0
_C71: - d_da_bat_10 - d_da_prod_10 + q_committed_10 = 0
_C72: d_da_bat_10 + d_da_prod_10 + d_id_bat_10 + d_id_prod_10 <= 61.8
_C73: d_da_prod_10 >= 8.63638596692
_C74: charge_10 + d_da_prod_10 + d_id_prod_10 <= 34.5455438677
_C75: - charge_10 + d_da_bat_10 + 0 d_id_bat_10 - d_id_prod_10
 - q_committed_10 + x_ceza_10 + x_id_10 = -34.5455438677
_C76: d_da_bat_10 + d_id_bat_10 + 61.8 is_charging_10 <= 61.8
_C77: charge_10 - 61.8 is_charging_10 <= 0
_C78: - d_da_bat_11 - d_da_prod_11 + q_committed_11 = 0
_C79: d_da_bat_11 + d_da_prod_11 + d_id_bat_11 + d_id_prod_11 <= 61.8
_C8: - d_da_bat_1 - d_da_prod_1 + q_committed_1 = 0
_C80: d_da_prod_11 >= 10.3129113669
_C81: charge_11 + d_da_prod_11 + d_id_prod_11 <= 41.2516454675
_C82: - charge_11 + d_da_bat_11 + 0 d_id_bat_11 - d_id_prod_11
 - q_committed_11 + x_ceza_11 + x_id_11 = -41.2516454675
_C83: d_da_bat_11 + d_id_bat_11 + 61.8 is_charging_11 <= 61.8
_C84: charge_11 - 61.8 is_charging_11 <= 0
_C85: - d_da_bat_12 - d_da_prod_12 + q_committed_12 = 0
_C86: d_da_bat_12 + d_da_prod_12 + d_id_bat_12 + d_id_prod_12 <= 61.8
_C87: d_da_prod_12 >= 10.3673001004
_C88: charge_12 + d_da_prod_12 + d_id_prod_12 <= 41.4692004015
_C89: - charge_12 + d_da_bat_12 + 0 d_id_bat_12 - d_id_prod_12
 - q_committed_12 + x_ceza_12 + x_id_12 = -41.4692004015
_C9: d_da_bat_1 + d_da_prod_1 + d_id_bat_1 + d_id_prod_1 <= 61.8
_C90: d_da_bat_12 + d_id_bat_12 + 61.8 is_charging_12 <= 61.8
_C91: charge_12 - 61.8 is_charging_12 <= 0
_C92: - d_da_bat_13 - d_da_prod_13 + q_committed_13 = 0
_C93: d_da_bat_13 + d_da_prod_13 + d_id_bat_13 + d_id_prod_13 <= 61.8
_C94: d_da_prod_13 >= 10.8876843298
_C95: charge_13 + d_da_prod_13 + d_id_prod_13 <= 43.5507373193
_C96: - charge_13 + d_da_bat_13 + 0 d_id_bat_13 - d_id_prod_13
 - q_committed_13 + x_ceza_13 + x_id_13 = -43.5507373193
_C97: d_da_bat_13 + d_id_bat_13 + 61.8 is_charging_13 <= 61.8
_C98: charge_13 - 61.8 is_charging_13 <= 0
_C99: - d_da_bat_14 - d_da_prod_14 + q_committed_14 = 0
Bounds
 8 <= soc_0 <= 40.2
 8 <= soc_1 <= 40.2
 8 <= soc_10 <= 40.2
 8 <= soc_11 <= 40.2
 8 <= soc_12 <= 40.2
 8 <= soc_13 <= 40.2
 8 <= soc_14 <= 40.2
 8 <= soc_15 <= 40.2
 8 <= soc_16 <= 40.2
 8 <= soc_17 <= 40.2
 8 <= soc_18 <= 40.2
 8 <= soc_19 <= 40.2
 8 <= soc_2 <= 40.2
 8 <= soc_20 <= 40.2
 8 <= soc_21 <= 40.2
 8 <= soc_22 <= 40.2
 8 <= soc_23 <= 40.2
 8 <= soc_24 <= 40.2
 8 <= soc_25 <= 40.2
 8 <= soc_26 <= 40.2
 8 <= soc_27 <= 40.2
 8 <= soc_28 <= 40.2
 8 <= soc_29 <= 40.2
 8 <= soc_3 <= 40.2
 8 <= soc_30 <= 40.2
 8 <= soc_31 <= 40.2
 8 <= soc_32 <= 40.2
 8 <= soc_33 <= 40.2
 8 <= soc_34 <= 40.2
 8 <= soc_35 <= 40.2
 8 <= soc_36 <= 40.2
 8 <= soc_37 <= 40.2
 8 <= soc_38 <= 40.2
 8 <= soc_39 <= 40.2
 8 <= soc_4 <= 40.2
 8 <= soc_40 <= 40.2
 8 <= soc_41 <= 40.2
 8 <= soc_42 <= 40.2
 8 <= soc_43 <= 40.2
 8 <= soc_44 <= 40.2
 8 <= soc_45 <= 40.2
 8 <= soc_46 <= 40.2
 8 <= soc_47 <= 40.2
 8 <= soc_5 <= 40.2
 8 <= soc_6 <= 40.2
 8 <= soc_7 <= 40.2
 8 <= soc_8 <= 40.2
 8 <= soc_9 <= 40.2
 8 <= soc_final <= 40.2
Binaries
is_charging_0
is_charging_1
is_charging_10
is_charging_11
is_charging_12
is_charging_13
is_charging_14
is_charging_15
is_charging_16
is_charging_17
is_charging_18
is_charging_19
is_charging_2
is_charging_20
is_charging_21
is_charging_22
is_charging_23
is_charging_24
is_charging_25
is_charging_26
is_charging_27
is_charging_28
is_charging_29
is_charging_3
is_charging_30
is_charging_31
is_charging_32
is_charging_33
is_charging_34
is_charging_35
is_charging_36
is_charging_37
is_charging_38
is_charging_39
is_charging_4
is_charging_40
is_charging_41
is_charging_42
is_charging_43
is_charging_44
is_charging_45
is_charging_46
is_charging_47
is_charging_5
is_charging_6
is_charging_7
is_charging_8
is_charging_9
End
